     200         3
     199         5
     198         4
     197         1
     195         1
     193         4
     192         1
     188         1
     187         1
     186         3
     185         3
     184         2
     183         2
     182         1
     181         1
     180         3
     179         2
     178         6
     177         2
     176         4
     175         1
     173         4
     172         4
     170         1
     169         3
     168         4
     167         1
     165         3
     164         1
     163         2
     162         4
     161         1
     160         3
     159         3
     158         1
     157         3
     155         2
     154         3
     153         1
     152         3
     151         1
     150         1